Maximize
F 

Subject to
F - 3y80 - 6y2 - 6y55 - 3y48 - 3y133 - 12y64 - 12y23 - 12y20 - 6y77 - 6y209 - 6y196 - 9y185 - 3y154 - 3y125 - 6y60 - 6y78 - 9y150 - 9y186 - 9y15 - 9y128 - 6y117 - 12y129 - 9y145 - 12y7 = 0

x88x80x1 + x88x55x1 + x88x64x1 + x88x23x1 + x88x77x1 + x88x209x1 + x88x196x1 + x88x154x1 + x88x125x1 + x88x78x1 + x88x15x1 + x88x117x1 + x88x145x1 + x88x7x1 
<= 1
x149x209x1 + x149x196x1 + x149x154x1 + x149x125x1 + x149x78x1 + x149x15x1 + x149x117x1 + x149x145x1 + x149x7x1 
<= 2
x205x117x1 
<= 1
x73x23x1 + x73x77x1 + x73x196x1 + x73x154x1 + x73x125x1 + x73x78x1 + x73x15x1 + x73x117x1 + x73x145x1 + x73x7x1 
<= 1
x181x23x1 + x181x77x1 + x181x154x1 + x181x125x1 + x181x78x1 + x181x15x1 + x181x117x1 + x181x145x1 + x181x7x1 
<= 1
x58x80x2 + x58x48x2 + x58x133x2 + x58x20x2 + x58x60x2 + x58x186x2 + x58x128x2 + x58x129x2 
<= 1
x88x80x2 + x88x48x2 + x88x133x2 + x88x20x2 + x88x60x2 + x88x186x2 + x88x128x2 + x88x129x2 
<= 1
x97x80x2 + x97x48x2 + x97x133x2 + x97x20x2 + x97x60x2 + x97x186x2 + x97x128x2 + x97x129x2 
<= 1
x187x80x2 + x187x48x2 + x187x133x2 + x187x20x2 + x187x60x2 + x187x186x2 + x187x128x2 + x187x129x2 
<= 1
x30x60x2 + x30x186x2 + x30x128x2 + x30x129x2 
<= 2
x97x2x3 + x97x133x3 + x97x64x3 + x97x23x3 + x97x20x3 + x97x77x3 + x97x209x3 + x97x185x3 + x97x154x3 + x97x125x3 + x97x60x3 + x97x150x3 + x97x15x3 + x97x128x3 + x97x129x3 + x97x145x3 
<= 1
x73x23x3 + x73x20x3 + x73x77x3 + x73x185x3 + x73x154x3 + x73x125x3 + x73x60x3 + x73x150x3 + x73x15x3 + x73x128x3 + x73x129x3 + x73x145x3 
<= 1
x181x23x3 + x181x20x3 + x181x77x3 + x181x185x3 + x181x154x3 + x181x125x3 + x181x60x3 + x181x150x3 + x181x15x3 + x181x128x3 + x181x129x3 + x181x145x3 
<= 1
x84x2x3 + x84x133x3 + x84x64x3 + x84x23x3 + x84x20x3 + x84x77x3 + x84x209x3 + x84x185x3 + x84x154x3 + x84x125x3 + x84x60x3 + x84x150x3 + x84x15x3 + x84x128x3 + x84x129x3 + x84x145x3 
<= 2

x88x80x1 
- x80x0x1
- x80x55x1 - x80x64x1 - x80x209x1 - x80x196x1 - x80x154x1 - x80x125x1 - x80x78x1 - x80x15x1 - x80x117x1 - x80x145x1 - x80x7x1 
= 0
x58x80x2 + x88x80x2 + x97x80x2 + x187x80x2 
- x80x0x2
- x80x48x2 - x80x133x2 - x80x60x2 - x80x186x2 - x80x128x2 - x80x129x2 
= 0




x97x2x3 + x84x2x3 
- x2x0x3
- x2x133x3 - x2x64x3 - x2x209x3 - x2x185x3 - x2x154x3 - x2x125x3 - x2x60x3 - x2x150x3 - x2x15x3 - x2x128x3 - x2x129x3 - x2x145x3 
= 0

x88x55x1 + x80x55x1 
- x55x0x1
- x55x64x1 - x55x209x1 - x55x196x1 - x55x154x1 - x55x125x1 - x55x78x1 - x55x15x1 - x55x117x1 - x55x145x1 - x55x7x1 
= 0




x58x48x2 + x88x48x2 + x97x48x2 + x187x48x2 + x80x48x2 
- x48x0x2
- x48x133x2 - x48x60x2 - x48x186x2 - x48x128x2 - x48x129x2 
= 0



x58x133x2 + x88x133x2 + x97x133x2 + x187x133x2 + x80x133x2 + x48x133x2 
- x133x0x2
- x133x60x2 - x133x186x2 - x133x128x2 - x133x129x2 
= 0
x97x133x3 + x84x133x3 + x2x133x3 
- x133x0x3
- x133x209x3 - x133x185x3 - x133x154x3 - x133x125x3 - x133x60x3 - x133x150x3 - x133x15x3 - x133x128x3 - x133x129x3 - x133x145x3 
= 0

x88x64x1 + x80x64x1 + x55x64x1 
- x64x0x1
- x64x209x1 - x64x196x1 - x64x154x1 - x64x125x1 - x64x78x1 - x64x15x1 - x64x117x1 - x64x145x1 - x64x7x1 
= 0

x97x64x3 + x84x64x3 + x2x64x3 
- x64x0x3
- x64x209x3 - x64x185x3 - x64x154x3 - x64x125x3 - x64x60x3 - x64x150x3 - x64x15x3 - x64x128x3 - x64x129x3 - x64x145x3 
= 0

x88x23x1 + x73x23x1 + x181x23x1 
- x23x0x1
- x23x77x1 - x23x15x1 - x23x117x1 - x23x145x1 - x23x7x1 
= 0

x97x23x3 + x73x23x3 + x181x23x3 + x84x23x3 
- x23x0x3
- x23x20x3 - x23x77x3 - x23x185x3 - x23x150x3 - x23x15x3 - x23x128x3 - x23x129x3 - x23x145x3 
= 0


x58x20x2 + x88x20x2 + x97x20x2 + x187x20x2 
- x20x0x2
- x20x186x2 - x20x128x2 - x20x129x2 
= 0
x97x20x3 + x73x20x3 + x181x20x3 + x84x20x3 + x23x20x3 
- x20x0x3
- x20x77x3 - x20x185x3 - x20x150x3 - x20x15x3 - x20x128x3 - x20x129x3 - x20x145x3 
= 0

x88x77x1 + x73x77x1 + x181x77x1 + x23x77x1 
- x77x0x1
- x77x15x1 - x77x145x1 - x77x7x1 
= 0

x97x77x3 + x73x77x3 + x181x77x3 + x84x77x3 + x23x77x3 + x20x77x3 
- x77x0x3
- x77x15x3 - x77x128x3 - x77x129x3 - x77x145x3 
= 0

x88x209x1 + x149x209x1 + x80x209x1 + x55x209x1 + x64x209x1 
- x209x0x1
- x209x196x1 - x209x154x1 - x209x125x1 - x209x78x1 - x209x117x1 - x209x7x1 
= 0

x97x209x3 + x84x209x3 + x2x209x3 + x133x209x3 + x64x209x3 
- x209x0x3
- x209x154x3 - x209x125x3 - x209x60x3 
= 0

x88x196x1 + x149x196x1 + x73x196x1 + x80x196x1 + x55x196x1 + x64x196x1 + x209x196x1 
- x196x0x1
- x196x154x1 - x196x125x1 - x196x78x1 - x196x117x1 
= 0





x97x185x3 + x73x185x3 + x181x185x3 + x84x185x3 + x2x185x3 + x133x185x3 + x64x185x3 + x23x185x3 + x20x185x3 
- x185x0x3
- x185x15x3 - x185x128x3 - x185x129x3 - x185x145x3 
= 0

x88x154x1 + x149x154x1 + x73x154x1 + x181x154x1 + x80x154x1 + x55x154x1 + x64x154x1 + x209x154x1 + x196x154x1 
- x154x0x1
- x154x78x1 - x154x117x1 
= 0

x97x154x3 + x73x154x3 + x181x154x3 + x84x154x3 + x2x154x3 + x133x154x3 + x64x154x3 + x209x154x3 
- x154x0x3
- x154x60x3 
= 0

x88x125x1 + x149x125x1 + x73x125x1 + x181x125x1 + x80x125x1 + x55x125x1 + x64x125x1 + x209x125x1 + x196x125x1 
- x125x0x1
- x125x117x1 
= 0

x97x125x3 + x73x125x3 + x181x125x3 + x84x125x3 + x2x125x3 + x133x125x3 + x64x125x3 + x209x125x3 
- x125x0x3

= 0


x58x60x2 + x88x60x2 + x97x60x2 + x187x60x2 + x30x60x2 + x80x60x2 + x48x60x2 + x133x60x2 
- x60x0x2

= 0
x97x60x3 + x73x60x3 + x181x60x3 + x84x60x3 + x2x60x3 + x133x60x3 + x64x60x3 + x209x60x3 + x154x60x3 
- x60x0x3

= 0

x88x78x1 + x149x78x1 + x73x78x1 + x181x78x1 + x80x78x1 + x55x78x1 + x64x78x1 + x209x78x1 + x196x78x1 + x154x78x1 
- x78x0x1
- x78x117x1 
= 0





x97x150x3 + x73x150x3 + x181x150x3 + x84x150x3 + x2x150x3 + x133x150x3 + x64x150x3 + x23x150x3 + x20x150x3 
- x150x0x3
- x150x15x3 
= 0


x58x186x2 + x88x186x2 + x97x186x2 + x187x186x2 + x30x186x2 + x80x186x2 + x48x186x2 + x133x186x2 + x20x186x2 
- x186x0x2
- x186x128x2 - x186x129x2 
= 0


x88x15x1 + x149x15x1 + x73x15x1 + x181x15x1 + x80x15x1 + x55x15x1 + x64x15x1 + x23x15x1 + x77x15x1 
- x15x0x1
- x15x7x1 
= 0

x97x15x3 + x73x15x3 + x181x15x3 + x84x15x3 + x2x15x3 + x133x15x3 + x64x15x3 + x23x15x3 + x20x15x3 + x77x15x3 + x185x15x3 + x150x15x3 
- x15x0x3

= 0


x58x128x2 + x88x128x2 + x97x128x2 + x187x128x2 + x30x128x2 + x80x128x2 + x48x128x2 + x133x128x2 + x20x128x2 + x186x128x2 
- x128x0x2
- x128x129x2 
= 0
x97x128x3 + x73x128x3 + x181x128x3 + x84x128x3 + x2x128x3 + x133x128x3 + x64x128x3 + x23x128x3 + x20x128x3 + x77x128x3 + x185x128x3 
- x128x0x3
- x128x129x3 - x128x145x3 
= 0

x88x117x1 + x149x117x1 + x205x117x1 + x73x117x1 + x181x117x1 + x80x117x1 + x55x117x1 + x64x117x1 + x23x117x1 + x209x117x1 + x196x117x1 + x154x117x1 + x125x117x1 + x78x117x1 
- x117x0x1

= 0




x58x129x2 + x88x129x2 + x97x129x2 + x187x129x2 + x30x129x2 + x80x129x2 + x48x129x2 + x133x129x2 + x20x129x2 + x186x129x2 + x128x129x2 
- x129x0x2

= 0
x97x129x3 + x73x129x3 + x181x129x3 + x84x129x3 + x2x129x3 + x133x129x3 + x64x129x3 + x23x129x3 + x20x129x3 + x77x129x3 + x185x129x3 + x128x129x3 
- x129x0x3
- x129x145x3 
= 0

x88x145x1 + x149x145x1 + x73x145x1 + x181x145x1 + x80x145x1 + x55x145x1 + x64x145x1 + x23x145x1 + x77x145x1 
- x145x0x1

= 0

x97x145x3 + x73x145x3 + x181x145x3 + x84x145x3 + x2x145x3 + x133x145x3 + x64x145x3 + x23x145x3 + x20x145x3 + x77x145x3 + x185x145x3 + x128x145x3 + x129x145x3 
- x145x0x3

= 0

x88x7x1 + x149x7x1 + x73x7x1 + x181x7x1 + x80x7x1 + x55x7x1 + x64x7x1 + x23x7x1 + x77x7x1 + x209x7x1 + x15x7x1 
- x7x0x1

= 0



1y80 - x88x80x1 = 0
1y80 - x58x80x2 - x88x80x2 - x97x80x2 - x187x80x2 = 0
2y2 - x97x2x3 - x84x2x3 = 0
2y55 - x88x55x1 - x80x55x1 = 0
2y48 - x58x48x2 - x88x48x2 - x97x48x2 - x187x48x2 - x80x48x2 = 0
1y133 - x58x133x2 - x88x133x2 - x97x133x2 - x187x133x2 - x80x133x2 - x48x133x2 = 0
1y133 - x97x133x3 - x84x133x3 - x2x133x3 = 0
1y64 - x88x64x1 - x80x64x1 - x55x64x1 = 0
1y64 - x97x64x3 - x84x64x3 - x2x64x3 = 0
1y23 - x88x23x1 - x73x23x1 - x181x23x1 = 0
1y23 - x97x23x3 - x73x23x3 - x181x23x3 - x84x23x3 = 0
1y20 - x58x20x2 - x88x20x2 - x97x20x2 - x187x20x2 = 0
1y20 - x97x20x3 - x73x20x3 - x181x20x3 - x84x20x3 - x23x20x3 = 0
1y77 - x88x77x1 - x73x77x1 - x181x77x1 - x23x77x1 = 0
1y77 - x97x77x3 - x73x77x3 - x181x77x3 - x84x77x3 - x23x77x3 - x20x77x3 = 0
1y209 - x88x209x1 - x149x209x1 - x80x209x1 - x55x209x1 - x64x209x1 = 0
1y209 - x97x209x3 - x84x209x3 - x2x209x3 - x133x209x3 - x64x209x3 = 0
2y196 - x88x196x1 - x149x196x1 - x73x196x1 - x80x196x1 - x55x196x1 - x64x196x1 - x209x196x1 = 0
2y185 - x97x185x3 - x73x185x3 - x181x185x3 - x84x185x3 - x2x185x3 - x133x185x3 - x64x185x3 - x23x185x3 - x20x185x3 = 0
1y154 - x88x154x1 - x149x154x1 - x73x154x1 - x181x154x1 - x80x154x1 - x55x154x1 - x64x154x1 - x209x154x1 - x196x154x1 = 0
1y154 - x97x154x3 - x73x154x3 - x181x154x3 - x84x154x3 - x2x154x3 - x133x154x3 - x64x154x3 - x209x154x3 = 0
1y125 - x88x125x1 - x149x125x1 - x73x125x1 - x181x125x1 - x80x125x1 - x55x125x1 - x64x125x1 - x209x125x1 - x196x125x1 = 0
1y125 - x97x125x3 - x73x125x3 - x181x125x3 - x84x125x3 - x2x125x3 - x133x125x3 - x64x125x3 - x209x125x3 = 0
1y60 - x58x60x2 - x88x60x2 - x97x60x2 - x187x60x2 - x30x60x2 - x80x60x2 - x48x60x2 - x133x60x2 = 0
1y60 - x97x60x3 - x73x60x3 - x181x60x3 - x84x60x3 - x2x60x3 - x133x60x3 - x64x60x3 - x209x60x3 - x154x60x3 = 0
2y78 - x88x78x1 - x149x78x1 - x73x78x1 - x181x78x1 - x80x78x1 - x55x78x1 - x64x78x1 - x209x78x1 - x196x78x1 - x154x78x1 = 0
2y150 - x97x150x3 - x73x150x3 - x181x150x3 - x84x150x3 - x2x150x3 - x133x150x3 - x64x150x3 - x23x150x3 - x20x150x3 = 0
2y186 - x58x186x2 - x88x186x2 - x97x186x2 - x187x186x2 - x30x186x2 - x80x186x2 - x48x186x2 - x133x186x2 - x20x186x2 = 0
1y15 - x88x15x1 - x149x15x1 - x73x15x1 - x181x15x1 - x80x15x1 - x55x15x1 - x64x15x1 - x23x15x1 - x77x15x1 = 0
1y15 - x97x15x3 - x73x15x3 - x181x15x3 - x84x15x3 - x2x15x3 - x133x15x3 - x64x15x3 - x23x15x3 - x20x15x3 - x77x15x3 - x185x15x3 - x150x15x3 = 0
1y128 - x58x128x2 - x88x128x2 - x97x128x2 - x187x128x2 - x30x128x2 - x80x128x2 - x48x128x2 - x133x128x2 - x20x128x2 - x186x128x2 = 0
1y128 - x97x128x3 - x73x128x3 - x181x128x3 - x84x128x3 - x2x128x3 - x133x128x3 - x64x128x3 - x23x128x3 - x20x128x3 - x77x128x3 - x185x128x3 = 0
2y117 - x88x117x1 - x149x117x1 - x205x117x1 - x73x117x1 - x181x117x1 - x80x117x1 - x55x117x1 - x64x117x1 - x23x117x1 - x209x117x1 - x196x117x1 - x154x117x1 - x125x117x1 - x78x117x1 = 0
1y129 - x58x129x2 - x88x129x2 - x97x129x2 - x187x129x2 - x30x129x2 - x80x129x2 - x48x129x2 - x133x129x2 - x20x129x2 - x186x129x2 - x128x129x2 = 0
1y129 - x97x129x3 - x73x129x3 - x181x129x3 - x84x129x3 - x2x129x3 - x133x129x3 - x64x129x3 - x23x129x3 - x20x129x3 - x77x129x3 - x185x129x3 - x128x129x3 = 0
1y145 - x88x145x1 - x149x145x1 - x73x145x1 - x181x145x1 - x80x145x1 - x55x145x1 - x64x145x1 - x23x145x1 - x77x145x1 = 0
1y145 - x97x145x3 - x73x145x3 - x181x145x3 - x84x145x3 - x2x145x3 - x133x145x3 - x64x145x3 - x23x145x3 - x20x145x3 - x77x145x3 - x185x145x3 - x128x145x3 - x129x145x3 = 0
2y7 - x88x7x1 - x149x7x1 - x73x7x1 - x181x7x1 - x80x7x1 - x55x7x1 - x64x7x1 - x23x7x1 - x77x7x1 - x209x7x1 - x15x7x1 = 0

s58 - s80 + 7.732198z58z80z2 <= 6.10
s58 - s48 + 7.723535z58z48z2 <= 6.10
s58 - s133 + 7.713919z58z133z2 <= 6.10
s58 - s20 + 7.529636z58z20z2 <= 6.10
s58 - s60 + 7.873930z58z60z2 <= 6.10
s58 - s186 + 7.681533z58z186z2 <= 6.10
s58 - s128 + 7.690623z58z128z2 <= 6.10
s58 - s129 + 7.682486z58z129z2 <= 6.10
s88 - s80 + 8.109199z88z80z1 <= 6.63
s88 - s80 + 8.109199z88z80z2 <= 6.63
s88 - s55 + 8.120676z88z55z1 <= 6.63
s88 - s48 + 8.101501z88z48z2 <= 6.63
s88 - s133 + 8.092768z88z133z2 <= 6.63
s88 - s64 + 8.118956z88z64z1 <= 6.63
s88 - s23 + 7.963963z88z23z1 <= 6.63
s88 - s20 + 7.969685z88z20z2 <= 6.63
s88 - s77 + 8.002539z88z77z1 <= 6.63
s88 - s209 + 8.245084z88z209z1 <= 6.63
s88 - s196 + 8.259592z88z196z1 <= 6.63
s88 - s154 + 8.256378z88z154z1 <= 6.63
s88 - s125 + 8.294466z88z125z1 <= 6.63
s88 - s60 + 8.251685z88z60z2 <= 6.63
s88 - s78 + 8.262826z88z78z1 <= 6.63
s88 - s186 + 8.092480z88z186z2 <= 6.63
s88 - s15 + 8.204505z88z15z1 <= 6.63
s88 - s128 + 8.101877z88z128z2 <= 6.63
s88 - s117 + 8.303224z88z117z1 <= 6.63
s88 - s129 + 8.096252z88z129z2 <= 6.63
s88 - s145 + 8.091040z88z145z1 <= 6.63
s88 - s7 + 8.237535z88z7z1 <= 6.63
s97 - s80 + 7.837849z97z80z2 <= 6.22
s97 - s2 + 7.833375z97z2z3 <= 6.22
s97 - s48 + 7.831089z97z48z2 <= 6.22
s97 - s133 + 7.822892z97z133z2 <= 6.22
s97 - s133 + 7.822892z97z133z3 <= 6.22
s97 - s64 + 7.848082z97z64z3 <= 6.22
s97 - s23 + 7.595717z97z23z3 <= 6.22
s97 - s20 + 7.599773z97z20z2 <= 6.22
s97 - s20 + 7.599773z97z20z3 <= 6.22
s97 - s77 + 7.639768z97z77z3 <= 6.22
s97 - s209 + 7.973403z97z209z3 <= 6.22
s97 - s185 + 7.868166z97z185z3 <= 6.22
s97 - s154 + 7.985337z97z154z3 <= 6.22
s97 - s125 + 8.021740z97z125z3 <= 6.22
s97 - s60 + 7.980913z97z60z2 <= 6.22
s97 - s60 + 7.980913z97z60z3 <= 6.22
s97 - s150 + 7.945403z97z150z3 <= 6.22
s97 - s186 + 7.756371z97z186z2 <= 6.22
s97 - s15 + 7.892784z97z15z3 <= 6.22
s97 - s128 + 7.765324z97z128z2 <= 6.22
s97 - s128 + 7.765324z97z128z3 <= 6.22
s97 - s129 + 7.756578z97z129z2 <= 6.22
s97 - s129 + 7.756578z97z129z3 <= 6.22
s97 - s145 + 7.748109z97z145z3 <= 6.22
s187 - s80 + 8.143091z187z80z2 <= 6.69
s187 - s48 + 8.133392z187z48z2 <= 6.69
s187 - s133 + 8.123218z187z133z2 <= 6.69
s187 - s20 + 8.064453z187z20z2 <= 6.69
s187 - s60 + 8.283760z187z60z2 <= 6.69
s187 - s186 + 8.172401z187z186z2 <= 6.69
s187 - s128 + 8.181828z187z128z2 <= 6.69
s187 - s129 + 8.177595z187z129z2 <= 6.69
s149 - s209 + 8.802252z149z209z1 <= 7.65
s149 - s196 + 8.816736z149z196z1 <= 7.65
s149 - s154 + 8.813992z149z154z1 <= 7.65
s149 - s125 + 8.852969z149z125z1 <= 7.65
s149 - s78 + 8.820330z149z78z1 <= 7.65
s149 - s15 + 9.006201z149z15z1 <= 7.65
s149 - s117 + 8.860538z149z117z1 <= 7.65
s149 - s145 + 9.086800z149z145z1 <= 7.65
s149 - s7 + 9.020807z149z7z1 <= 7.65
s205 - s117 + 9.337751z205z117z1 <= 8.13
s73 - s23 + 8.533994z73z23z1 <= 7.50
s73 - s23 + 8.533994z73z23z3 <= 7.50
s73 - s20 + 8.535901z73z20z3 <= 7.50
s73 - s77 + 8.578032z73z77z1 <= 7.50
s73 - s77 + 8.578032z73z77z3 <= 7.50
s73 - s196 + 9.137251z73z196z1 <= 7.50
s73 - s185 + 8.863929z73z185z3 <= 7.50
s73 - s154 + 9.141388z73z154z1 <= 7.50
s73 - s154 + 9.141388z73z154z3 <= 7.50
s73 - s125 + 9.154896z73z125z1 <= 7.50
s73 - s125 + 9.154896z73z125z3 <= 7.50
s73 - s60 + 9.141179z73z60z3 <= 7.50
s73 - s78 + 9.146255z73z78z1 <= 7.50
s73 - s150 + 8.954997z73z150z3 <= 7.50
s73 - s15 + 8.881459z73z15z1 <= 7.50
s73 - s15 + 8.881459z73z15z3 <= 7.50
s73 - s128 + 8.721610z73z128z3 <= 7.50
s73 - s117 + 9.180457z73z117z1 <= 7.50
s73 - s129 + 8.709337z73z129z3 <= 7.50
s73 - s145 + 8.697428z73z145z1 <= 7.50
s73 - s145 + 8.697428z73z145z3 <= 7.50
s73 - s7 + 8.914192z73z7z1 <= 7.50
s181 - s23 + 8.561006z181z23z1 <= 7.54
s181 - s23 + 8.561006z181z23z3 <= 7.54
s181 - s20 + 8.566186z181z20z3 <= 7.54
s181 - s77 + 8.605042z181z77z1 <= 7.54
s181 - s77 + 8.605042z181z77z3 <= 7.54
s181 - s185 + 8.885337z181z185z3 <= 7.54
s181 - s154 + 9.164474z181z154z1 <= 7.54
s181 - s154 + 9.164474z181z154z3 <= 7.54
s181 - s125 + 9.177269z181z125z1 <= 7.54
s181 - s125 + 9.177269z181z125z3 <= 7.54
s181 - s60 + 9.164403z181z60z3 <= 7.54
s181 - s78 + 9.169276z181z78z1 <= 7.54
s181 - s150 + 8.976251z181z150z3 <= 7.54
s181 - s15 + 8.903135z181z15z1 <= 7.54
s181 - s15 + 8.903135z181z15z3 <= 7.54
s181 - s128 + 8.744907z181z128z3 <= 7.54
s181 - s117 + 9.203192z181z117z1 <= 7.54
s181 - s129 + 8.733053z181z129z3 <= 7.54
s181 - s145 + 8.721655z181z145z1 <= 7.54
s181 - s145 + 8.721655z181z145z3 <= 7.54
s181 - s7 + 8.935990z181z7z1 <= 7.54
s30 - s60 + 8.809014z30z60z2 <= 7.67
s30 - s186 + 9.083488z30z186z2 <= 7.67
s30 - s128 + 9.088038z30z128z2 <= 7.67
s30 - s129 + 9.098182z30z129z2 <= 7.67
s84 - s2 + 7.266133z84z2z3 <= 5.64
s84 - s133 + 7.255011z84z133z3 <= 5.64
s84 - s64 + 7.280790z84z64z3 <= 5.64
s84 - s23 + 7.031226z84z23z3 <= 5.64
s84 - s20 + 7.035190z84z20z3 <= 5.64
s84 - s77 + 7.075392z84z77z3 <= 5.64
s84 - s209 + 7.406480z84z209z3 <= 5.64
s84 - s185 + 7.304684z84z185z3 <= 5.64
s84 - s154 + 7.418147z84z154z3 <= 5.64
s84 - s125 + 7.455190z84z125z3 <= 5.64
s84 - s60 + 7.413593z84z60z3 <= 5.64
s84 - s150 + 7.381767z84z150z3 <= 5.64
s84 - s15 + 7.329324z84z15z3 <= 5.64
s84 - s128 + 7.201661z84z128z3 <= 5.64
s84 - s129 + 7.192844z84z129z3 <= 5.64
s84 - s145 + 7.184290z84z145z3 <= 5.64
s80 - s55 + 9.554907z80z55z1 <= 8.54
s80 - s48 + 9.564037z80z48z2 <= 8.54
s80 - s133 + 9.582687z80z133z2 <= 8.54
s80 - s64 + 9.554907z80z64z1 <= 8.54
s80 - s209 + 9.675974z80z209z1 <= 8.54
s80 - s196 + 9.690407z80z196z1 <= 8.54
s80 - s154 + 9.687572z80z154z1 <= 8.54
s80 - s125 + 9.727142z80z125z1 <= 8.54
s80 - s60 + 9.683604z80z60z2 <= 8.54
s80 - s78 + 9.693912z80z78z1 <= 8.54
s80 - s186 + 9.968590z80z186z2 <= 8.54
s80 - s15 + 9.903929z80z15z1 <= 8.54
s80 - s128 + 9.973333z80z128z2 <= 8.54
s80 - s117 + 9.734137z80z117z1 <= 8.54
s80 - s129 + 9.983220z80z129z2 <= 8.54
s80 - s145 + 9.993382z80z145z1 <= 8.54
s80 - s7 + 9.916770z80z7z1 <= 8.54
s2 - s133 + 9.583334z2z133z3 <= 8.55
s2 - s64 + 9.564907z2z64z3 <= 8.55
s2 - s209 + 9.691422z2z209z3 <= 8.55
s2 - s185 + 9.898967z2z185z3 <= 8.55
s2 - s154 + 9.702024z2z154z3 <= 8.55
s2 - s125 + 9.743448z2z125z3 <= 8.55
s2 - s60 + 9.697573z2z60z3 <= 8.55
s2 - s150 + 9.887968z2z150z3 <= 8.55
s2 - s15 + 9.921543z2z15z3 <= 8.55
s2 - s128 + 9.988229z2z128z3 <= 8.55
s2 - s129 + 9.997909z2z129z3 <= 8.55
s2 - s145 + 10.007870z2z145z3 <= 8.55
s55 - s64 + 9.581082z55z64z1 <= 8.56
s55 - s209 + 9.684544z55z209z1 <= 8.56
s55 - s196 + 9.699204z55z196z1 <= 8.56
s55 - s154 + 9.697437z55z154z1 <= 8.56
s55 - s125 + 9.734484z55z125z1 <= 8.56
s55 - s78 + 9.703605z55z78z1 <= 8.56
s55 - s15 + 9.915590z55z15z1 <= 8.56
s55 - s117 + 9.743424z55z117z1 <= 8.56
s55 - s145 + 10.011171z55z145z1 <= 8.56
s55 - s7 + 9.927394z55z7z1 <= 8.56
s48 - s133 + 9.598856z48z133z2 <= 8.58
s48 - s60 + 9.730407z48z60z2 <= 8.58
s48 - s186 + 10.024722z48z186z2 <= 8.58
s48 - s128 + 10.029790z48z128z2 <= 8.58
s48 - s129 + 10.039227z48z129z2 <= 8.58
s133 - s209 + 9.760139z133z209z3 <= 8.60
s133 - s185 + 9.978125z133z185z3 <= 8.60
s133 - s154 + 9.767200z133z154z3 <= 8.60
s133 - s125 + 9.814269z133z125z3 <= 8.60
s133 - s60 + 9.761246z133z60z2 <= 8.60
s133 - s60 + 9.761246z133z60z3 <= 8.60
s133 - s150 + 9.970285z133z150z3 <= 8.60
s133 - s186 + 10.054997z133z186z2 <= 8.60
s133 - s15 + 10.001387z133z15z3 <= 8.60
s133 - s128 + 10.060338z133z128z2 <= 8.60
s133 - s128 + 10.060338z133z128z3 <= 8.60
s133 - s129 + 10.069373z133z129z2 <= 8.60
s133 - s129 + 10.069373z133z129z3 <= 8.60
s133 - s145 + 10.078702z133z145z3 <= 8.60
s64 - s209 + 9.747366z64z209z1 <= 8.62
s64 - s209 + 9.747366z64z209z3 <= 8.62
s64 - s196 + 9.761421z64z196z1 <= 8.62
s64 - s185 + 9.974339z64z185z3 <= 8.62
s64 - s154 + 9.757437z64z154z1 <= 8.62
s64 - s154 + 9.757437z64z154z3 <= 8.62
s64 - s125 + 9.800000z64z125z1 <= 8.62
s64 - s125 + 9.800000z64z125z3 <= 8.62
s64 - s60 + 9.752832z64z60z3 <= 8.62
s64 - s78 + 9.763913z64z78z1 <= 8.62
s64 - s150 + 9.959476z64z150z3 <= 8.62
s64 - s15 + 9.996239z64z15z1 <= 8.62
s64 - s15 + 9.996239z64z15z3 <= 8.62
s64 - s128 + 10.067908z64z128z3 <= 8.62
s64 - s117 + 9.804391z64z117z1 <= 8.62
s64 - s129 + 10.077869z64z129z3 <= 8.62
s64 - s145 + 10.088093z64z145z1 <= 8.62
s64 - s145 + 10.088093z64z145z3 <= 8.62
s64 - s7 + 10.008329z64z7z1 <= 8.62
s23 - s20 + 9.656666z23z20z3 <= 8.65
s23 - s77 + 9.694721z23z77z1 <= 8.65
s23 - s77 + 9.694721z23z77z3 <= 8.65
s23 - s185 + 9.982131z23z185z3 <= 8.65
s23 - s150 + 10.073740z23z150z3 <= 8.65
s23 - s15 + 9.998966z23z15z1 <= 8.65
s23 - s15 + 9.998966z23z15z3 <= 8.65
s23 - s128 + 9.837734z23z128z3 <= 8.65
s23 - s117 + 10.310235z23z117z1 <= 8.65
s23 - s129 + 9.825373z23z129z3 <= 8.65
s23 - s145 + 9.813435z23z145z1 <= 8.65
s23 - s145 + 9.813435z23z145z3 <= 8.65
s23 - s7 + 10.031459z23z7z1 <= 8.65
s20 - s77 + 9.752164z20z77z3 <= 8.71
s20 - s185 + 10.043400z20z185z3 <= 8.71
s20 - s150 + 10.135258z20z150z3 <= 8.71
s20 - s186 + 9.890123z20z186z2 <= 8.71
s20 - s15 + 10.059793z20z15z3 <= 8.71
s20 - s128 + 9.897142z20z128z2 <= 8.71
s20 - s128 + 9.897142z20z128z3 <= 8.71
s20 - s129 + 9.884483z20z129z2 <= 8.71
s20 - s129 + 9.884483z20z129z3 <= 8.71
s20 - s145 + 9.872207z20z145z3 <= 8.71
s77 - s15 + 10.252481z77z15z1 <= 8.94
s77 - s15 + 10.252481z77z15z3 <= 8.94
s77 - s128 + 10.086666z77z128z3 <= 8.94
s77 - s129 + 10.073500z77z129z3 <= 8.94
s77 - s145 + 10.060738z77z145z1 <= 8.94
s77 - s145 + 10.060738z77z145z3 <= 8.94
s77 - s7 + 10.284157z77z7z1 <= 8.94
s209 - s196 + 10.084907z209z196z1 <= 9.07
s209 - s154 + 10.091082z209z154z1 <= 9.07
s209 - s154 + 10.091082z209z154z3 <= 9.07
s209 - s125 + 10.124974z209z125z1 <= 9.07
s209 - s125 + 10.124974z209z125z3 <= 9.07
s209 - s60 + 10.096666z209z60z3 <= 9.07
s209 - s78 + 10.094037z209z78z1 <= 9.07
s209 - s117 + 10.129628z209z117z1 <= 9.07
s209 - s7 + 10.466092z209z7z1 <= 9.07
s196 - s154 + 10.154907z196z154z1 <= 9.14
s196 - s125 + 10.184722z196z125z1 <= 9.14
s196 - s78 + 10.153334z196z78z1 <= 9.14
s196 - s117 + 10.184722z196z117z1 <= 9.14
s185 - s15 + 10.178284z185z15z3 <= 9.15
s185 - s128 + 10.311245z185z128z3 <= 9.15
s185 - s129 + 10.326131z185z129z3 <= 9.15
s185 - s145 + 10.341021z185z145z3 <= 9.15
s154 - s60 + 10.189428z154z60z3 <= 9.18
s154 - s78 + 10.186666z154z78z1 <= 9.18
s154 - s117 + 10.227140z154z117z1 <= 9.18
s125 - s117 + 10.230000z125z117z1 <= 9.19
s78 - s117 + 10.240552z78z117z1 <= 9.20
s150 - s15 + 10.305375z150z15z3 <= 9.22
s186 - s128 + 10.289428z186z128z2 <= 9.28
s186 - s129 + 10.294907z186z129z2 <= 9.28
s15 - s7 + 10.383994z15z7z1 <= 9.35
s128 - s129 + 10.364907z128z129z2 <= 9.35
s128 - s129 + 10.364907z128z129z3 <= 9.35
s128 - s145 + 10.379814z128z145z3 <= 9.35
s129 - s145 + 10.394907z129z145z3 <= 9.38

x58x80x2 - 1z58z80z2 <= 0
x58x48x2 - 2z58z48z2 <= 0
x58x133x2 - 1z58z133z2 <= 0
x58x20x2 - 1z58z20z2 <= 0
x58x60x2 - 1z58z60z2 <= 0
x58x186x2 - 2z58z186z2 <= 0
x58x128x2 - 1z58z128z2 <= 0
x58x129x2 - 1z58z129z2 <= 0
x88x80x1 - 1z88z80z1 <= 0
x88x80x2 - 1z88z80z2 <= 0
x88x55x1 - 2z88z55z1 <= 0
x88x48x2 - 2z88z48z2 <= 0
x88x133x2 - 1z88z133z2 <= 0
x88x64x1 - 1z88z64z1 <= 0
x88x23x1 - 1z88z23z1 <= 0
x88x20x2 - 1z88z20z2 <= 0
x88x77x1 - 1z88z77z1 <= 0
x88x209x1 - 1z88z209z1 <= 0
x88x196x1 - 2z88z196z1 <= 0
x88x154x1 - 1z88z154z1 <= 0
x88x125x1 - 1z88z125z1 <= 0
x88x60x2 - 1z88z60z2 <= 0
x88x78x1 - 2z88z78z1 <= 0
x88x186x2 - 2z88z186z2 <= 0
x88x15x1 - 1z88z15z1 <= 0
x88x128x2 - 1z88z128z2 <= 0
x88x117x1 - 2z88z117z1 <= 0
x88x129x2 - 1z88z129z2 <= 0
x88x145x1 - 1z88z145z1 <= 0
x88x7x1 - 2z88z7z1 <= 0
x97x80x2 - 1z97z80z2 <= 0
x97x2x3 - 2z97z2z3 <= 0
x97x48x2 - 2z97z48z2 <= 0
x97x133x2 - 1z97z133z2 <= 0
x97x133x3 - 1z97z133z3 <= 0
x97x64x3 - 1z97z64z3 <= 0
x97x23x3 - 1z97z23z3 <= 0
x97x20x2 - 1z97z20z2 <= 0
x97x20x3 - 1z97z20z3 <= 0
x97x77x3 - 1z97z77z3 <= 0
x97x209x3 - 1z97z209z3 <= 0
x97x185x3 - 2z97z185z3 <= 0
x97x154x3 - 1z97z154z3 <= 0
x97x125x3 - 1z97z125z3 <= 0
x97x60x2 - 1z97z60z2 <= 0
x97x60x3 - 1z97z60z3 <= 0
x97x150x3 - 2z97z150z3 <= 0
x97x186x2 - 2z97z186z2 <= 0
x97x15x3 - 1z97z15z3 <= 0
x97x128x2 - 1z97z128z2 <= 0
x97x128x3 - 1z97z128z3 <= 0
x97x129x2 - 1z97z129z2 <= 0
x97x129x3 - 1z97z129z3 <= 0
x97x145x3 - 1z97z145z3 <= 0
x187x80x2 - 1z187z80z2 <= 0
x187x48x2 - 2z187z48z2 <= 0
x187x133x2 - 1z187z133z2 <= 0
x187x20x2 - 1z187z20z2 <= 0
x187x60x2 - 1z187z60z2 <= 0
x187x186x2 - 2z187z186z2 <= 0
x187x128x2 - 1z187z128z2 <= 0
x187x129x2 - 1z187z129z2 <= 0
x149x209x1 - 1z149z209z1 <= 0
x149x196x1 - 2z149z196z1 <= 0
x149x154x1 - 1z149z154z1 <= 0
x149x125x1 - 1z149z125z1 <= 0
x149x78x1 - 2z149z78z1 <= 0
x149x15x1 - 1z149z15z1 <= 0
x149x117x1 - 2z149z117z1 <= 0
x149x145x1 - 1z149z145z1 <= 0
x149x7x1 - 2z149z7z1 <= 0
x205x117x1 - 2z205z117z1 <= 0
x73x23x1 - 1z73z23z1 <= 0
x73x23x3 - 1z73z23z3 <= 0
x73x20x3 - 1z73z20z3 <= 0
x73x77x1 - 1z73z77z1 <= 0
x73x77x3 - 1z73z77z3 <= 0
x73x196x1 - 2z73z196z1 <= 0
x73x185x3 - 2z73z185z3 <= 0
x73x154x1 - 1z73z154z1 <= 0
x73x154x3 - 1z73z154z3 <= 0
x73x125x1 - 1z73z125z1 <= 0
x73x125x3 - 1z73z125z3 <= 0
x73x60x3 - 1z73z60z3 <= 0
x73x78x1 - 2z73z78z1 <= 0
x73x150x3 - 2z73z150z3 <= 0
x73x15x1 - 1z73z15z1 <= 0
x73x15x3 - 1z73z15z3 <= 0
x73x128x3 - 1z73z128z3 <= 0
x73x117x1 - 2z73z117z1 <= 0
x73x129x3 - 1z73z129z3 <= 0
x73x145x1 - 1z73z145z1 <= 0
x73x145x3 - 1z73z145z3 <= 0
x73x7x1 - 2z73z7z1 <= 0
x181x23x1 - 1z181z23z1 <= 0
x181x23x3 - 1z181z23z3 <= 0
x181x20x3 - 1z181z20z3 <= 0
x181x77x1 - 1z181z77z1 <= 0
x181x77x3 - 1z181z77z3 <= 0
x181x185x3 - 2z181z185z3 <= 0
x181x154x1 - 1z181z154z1 <= 0
x181x154x3 - 1z181z154z3 <= 0
x181x125x1 - 1z181z125z1 <= 0
x181x125x3 - 1z181z125z3 <= 0
x181x60x3 - 1z181z60z3 <= 0
x181x78x1 - 2z181z78z1 <= 0
x181x150x3 - 2z181z150z3 <= 0
x181x15x1 - 1z181z15z1 <= 0
x181x15x3 - 1z181z15z3 <= 0
x181x128x3 - 1z181z128z3 <= 0
x181x117x1 - 2z181z117z1 <= 0
x181x129x3 - 1z181z129z3 <= 0
x181x145x1 - 1z181z145z1 <= 0
x181x145x3 - 1z181z145z3 <= 0
x181x7x1 - 2z181z7z1 <= 0
x30x60x2 - 1z30z60z2 <= 0
x30x186x2 - 2z30z186z2 <= 0
x30x128x2 - 1z30z128z2 <= 0
x30x129x2 - 1z30z129z2 <= 0
x84x2x3 - 2z84z2z3 <= 0
x84x133x3 - 1z84z133z3 <= 0
x84x64x3 - 1z84z64z3 <= 0
x84x23x3 - 1z84z23z3 <= 0
x84x20x3 - 1z84z20z3 <= 0
x84x77x3 - 1z84z77z3 <= 0
x84x209x3 - 1z84z209z3 <= 0
x84x185x3 - 2z84z185z3 <= 0
x84x154x3 - 1z84z154z3 <= 0
x84x125x3 - 1z84z125z3 <= 0
x84x60x3 - 1z84z60z3 <= 0
x84x150x3 - 2z84z150z3 <= 0
x84x15x3 - 1z84z15z3 <= 0
x84x128x3 - 1z84z128z3 <= 0
x84x129x3 - 1z84z129z3 <= 0
x84x145x3 - 1z84z145z3 <= 0
x80x55x1 - 2z80z55z1 <= 0
x80x48x2 - 2z80z48z2 <= 0
x80x133x2 - 1z80z133z2 <= 0
x80x64x1 - 1z80z64z1 <= 0
x80x209x1 - 1z80z209z1 <= 0
x80x196x1 - 2z80z196z1 <= 0
x80x154x1 - 1z80z154z1 <= 0
x80x125x1 - 1z80z125z1 <= 0
x80x60x2 - 1z80z60z2 <= 0
x80x78x1 - 2z80z78z1 <= 0
x80x186x2 - 2z80z186z2 <= 0
x80x15x1 - 1z80z15z1 <= 0
x80x128x2 - 1z80z128z2 <= 0
x80x117x1 - 2z80z117z1 <= 0
x80x129x2 - 1z80z129z2 <= 0
x80x145x1 - 1z80z145z1 <= 0
x80x7x1 - 2z80z7z1 <= 0
x80x0x1 <= 1
x80x0x2 <= 1
x2x133x3 - 1z2z133z3 <= 0
x2x64x3 - 1z2z64z3 <= 0
x2x209x3 - 1z2z209z3 <= 0
x2x185x3 - 2z2z185z3 <= 0
x2x154x3 - 1z2z154z3 <= 0
x2x125x3 - 1z2z125z3 <= 0
x2x60x3 - 1z2z60z3 <= 0
x2x150x3 - 2z2z150z3 <= 0
x2x15x3 - 1z2z15z3 <= 0
x2x128x3 - 1z2z128z3 <= 0
x2x129x3 - 1z2z129z3 <= 0
x2x145x3 - 1z2z145z3 <= 0
x2x0x3 <= 2
x55x64x1 - 1z55z64z1 <= 0
x55x209x1 - 1z55z209z1 <= 0
x55x196x1 - 2z55z196z1 <= 0
x55x154x1 - 1z55z154z1 <= 0
x55x125x1 - 1z55z125z1 <= 0
x55x78x1 - 2z55z78z1 <= 0
x55x15x1 - 1z55z15z1 <= 0
x55x117x1 - 2z55z117z1 <= 0
x55x145x1 - 1z55z145z1 <= 0
x55x7x1 - 2z55z7z1 <= 0
x55x0x1 <= 2
x48x133x2 - 1z48z133z2 <= 0
x48x60x2 - 1z48z60z2 <= 0
x48x186x2 - 2z48z186z2 <= 0
x48x128x2 - 1z48z128z2 <= 0
x48x129x2 - 1z48z129z2 <= 0
x48x0x2 <= 2
x133x209x3 - 1z133z209z3 <= 0
x133x185x3 - 2z133z185z3 <= 0
x133x154x3 - 1z133z154z3 <= 0
x133x125x3 - 1z133z125z3 <= 0
x133x60x2 - 1z133z60z2 <= 0
x133x60x3 - 1z133z60z3 <= 0
x133x150x3 - 2z133z150z3 <= 0
x133x186x2 - 2z133z186z2 <= 0
x133x15x3 - 1z133z15z3 <= 0
x133x128x2 - 1z133z128z2 <= 0
x133x128x3 - 1z133z128z3 <= 0
x133x129x2 - 1z133z129z2 <= 0
x133x129x3 - 1z133z129z3 <= 0
x133x145x3 - 1z133z145z3 <= 0
x133x0x2 <= 1
x133x0x3 <= 1
x64x209x1 - 1z64z209z1 <= 0
x64x209x3 - 1z64z209z3 <= 0
x64x196x1 - 2z64z196z1 <= 0
x64x185x3 - 2z64z185z3 <= 0
x64x154x1 - 1z64z154z1 <= 0
x64x154x3 - 1z64z154z3 <= 0
x64x125x1 - 1z64z125z1 <= 0
x64x125x3 - 1z64z125z3 <= 0
x64x60x3 - 1z64z60z3 <= 0
x64x78x1 - 2z64z78z1 <= 0
x64x150x3 - 2z64z150z3 <= 0
x64x15x1 - 1z64z15z1 <= 0
x64x15x3 - 1z64z15z3 <= 0
x64x128x3 - 1z64z128z3 <= 0
x64x117x1 - 2z64z117z1 <= 0
x64x129x3 - 1z64z129z3 <= 0
x64x145x1 - 1z64z145z1 <= 0
x64x145x3 - 1z64z145z3 <= 0
x64x7x1 - 2z64z7z1 <= 0
x64x0x1 <= 1
x64x0x3 <= 1
x23x20x3 - 1z23z20z3 <= 0
x23x77x1 - 1z23z77z1 <= 0
x23x77x3 - 1z23z77z3 <= 0
x23x185x3 - 2z23z185z3 <= 0
x23x150x3 - 2z23z150z3 <= 0
x23x15x1 - 1z23z15z1 <= 0
x23x15x3 - 1z23z15z3 <= 0
x23x128x3 - 1z23z128z3 <= 0
x23x117x1 - 2z23z117z1 <= 0
x23x129x3 - 1z23z129z3 <= 0
x23x145x1 - 1z23z145z1 <= 0
x23x145x3 - 1z23z145z3 <= 0
x23x7x1 - 2z23z7z1 <= 0
x23x0x1 <= 1
x23x0x3 <= 1
x20x77x3 - 1z20z77z3 <= 0
x20x185x3 - 2z20z185z3 <= 0
x20x150x3 - 2z20z150z3 <= 0
x20x186x2 - 2z20z186z2 <= 0
x20x15x3 - 1z20z15z3 <= 0
x20x128x2 - 1z20z128z2 <= 0
x20x128x3 - 1z20z128z3 <= 0
x20x129x2 - 1z20z129z2 <= 0
x20x129x3 - 1z20z129z3 <= 0
x20x145x3 - 1z20z145z3 <= 0
x20x0x2 <= 1
x20x0x3 <= 1
x77x15x1 - 1z77z15z1 <= 0
x77x15x3 - 1z77z15z3 <= 0
x77x128x3 - 1z77z128z3 <= 0
x77x129x3 - 1z77z129z3 <= 0
x77x145x1 - 1z77z145z1 <= 0
x77x145x3 - 1z77z145z3 <= 0
x77x7x1 - 2z77z7z1 <= 0
x77x0x1 <= 1
x77x0x3 <= 1
x209x196x1 - 2z209z196z1 <= 0
x209x154x1 - 1z209z154z1 <= 0
x209x154x3 - 1z209z154z3 <= 0
x209x125x1 - 1z209z125z1 <= 0
x209x125x3 - 1z209z125z3 <= 0
x209x60x3 - 1z209z60z3 <= 0
x209x78x1 - 2z209z78z1 <= 0
x209x117x1 - 2z209z117z1 <= 0
x209x7x1 - 2z209z7z1 <= 0
x209x0x1 <= 1
x209x0x3 <= 1
x196x154x1 - 1z196z154z1 <= 0
x196x125x1 - 1z196z125z1 <= 0
x196x78x1 - 2z196z78z1 <= 0
x196x117x1 - 2z196z117z1 <= 0
x196x0x1 <= 2
x185x15x3 - 1z185z15z3 <= 0
x185x128x3 - 1z185z128z3 <= 0
x185x129x3 - 1z185z129z3 <= 0
x185x145x3 - 1z185z145z3 <= 0
x185x0x3 <= 2
x154x60x3 - 1z154z60z3 <= 0
x154x78x1 - 2z154z78z1 <= 0
x154x117x1 - 2z154z117z1 <= 0
x154x0x1 <= 1
x154x0x3 <= 1
x125x117x1 - 2z125z117z1 <= 0
x125x0x1 <= 1
x125x0x3 <= 1
x60x0x2 <= 1
x60x0x3 <= 1
x78x117x1 - 2z78z117z1 <= 0
x78x0x1 <= 2
x150x15x3 - 1z150z15z3 <= 0
x150x0x3 <= 2
x186x128x2 - 1z186z128z2 <= 0
x186x129x2 - 1z186z129z2 <= 0
x186x0x2 <= 2
x15x7x1 - 2z15z7z1 <= 0
x15x0x1 <= 1
x15x0x3 <= 1
x128x129x2 - 1z128z129z2 <= 0
x128x129x3 - 1z128z129z3 <= 0
x128x145x3 - 1z128z145z3 <= 0
x128x0x2 <= 1
x128x0x3 <= 1
x117x0x1 <= 2
x129x145x3 - 1z129z145z3 <= 0
x129x0x2 <= 1
x129x0x3 <= 1
x145x0x1 <= 1
x145x0x3 <= 1
x7x0x1 <= 2

Bounds
s58 = 6.099391
s88 = 6.628967
s97 = 6.219715
s187 = 6.691477
s149 = 7.645337
s205 = 8.128945
s73 = 7.500000
s181 = 7.542149
s30 = 7.665875
s84 = 5.635190
7.540000 <= s80 <= 8.540000
7.550000 <= s2 <= 8.550000
7.560000 <= s55 <= 8.560000
7.580000 <= s48 <= 8.580000
7.600000 <= s133 <= 8.600000
7.620000 <= s64 <= 8.620000
7.650000 <= s23 <= 8.650000
7.710000 <= s20 <= 8.710000
7.940000 <= s77 <= 8.940000
8.070000 <= s209 <= 9.070000
8.140000 <= s196 <= 9.140000
8.150000 <= s185 <= 9.150000
8.180000 <= s154 <= 9.180000
8.190000 <= s125 <= 9.190000
8.200000 <= s60 <= 9.200000
8.200000 <= s78 <= 9.200000
8.220000 <= s150 <= 9.220000
8.280000 <= s186 <= 9.280000
8.350000 <= s15 <= 9.350000
8.350000 <= s128 <= 9.350000
8.360000 <= s117 <= 9.360000
8.380000 <= s129 <= 9.380000
8.400000 <= s145 <= 9.400000
8.490000 <= s7 <= 9.490000

General
x58x80x2 x58x48x2 x58x133x2 x58x20x2 x58x60x2 x58x186x2 x58x128x2 x58x129x2 
x88x80x1 x88x80x2 x88x55x1 x88x48x2 x88x133x2 x88x64x1 x88x23x1 x88x20x2 x88x77x1 x88x209x1 x88x196x1 x88x154x1 x88x125x1 x88x60x2 x88x78x1 x88x186x2 x88x15x1 x88x128x2 x88x117x1 x88x129x2 x88x145x1 x88x7x1 
x97x80x2 x97x2x3 x97x48x2 x97x133x2 x97x133x3 x97x64x3 x97x23x3 x97x20x2 x97x20x3 x97x77x3 x97x209x3 x97x185x3 x97x154x3 x97x125x3 x97x60x2 x97x60x3 x97x150x3 x97x186x2 x97x15x3 x97x128x2 x97x128x3 x97x129x2 x97x129x3 x97x145x3 
x187x80x2 x187x48x2 x187x133x2 x187x20x2 x187x60x2 x187x186x2 x187x128x2 x187x129x2 
x149x209x1 x149x196x1 x149x154x1 x149x125x1 x149x78x1 x149x15x1 x149x117x1 x149x145x1 x149x7x1 
x205x117x1 
x73x23x1 x73x23x3 x73x20x3 x73x77x1 x73x77x3 x73x196x1 x73x185x3 x73x154x1 x73x154x3 x73x125x1 x73x125x3 x73x60x3 x73x78x1 x73x150x3 x73x15x1 x73x15x3 x73x128x3 x73x117x1 x73x129x3 x73x145x1 x73x145x3 x73x7x1 
x181x23x1 x181x23x3 x181x20x3 x181x77x1 x181x77x3 x181x185x3 x181x154x1 x181x154x3 x181x125x1 x181x125x3 x181x60x3 x181x78x1 x181x150x3 x181x15x1 x181x15x3 x181x128x3 x181x117x1 x181x129x3 x181x145x1 x181x145x3 x181x7x1 
x30x60x2 x30x186x2 x30x128x2 x30x129x2 
x84x2x3 x84x133x3 x84x64x3 x84x23x3 x84x20x3 x84x77x3 x84x209x3 x84x185x3 x84x154x3 x84x125x3 x84x60x3 x84x150x3 x84x15x3 x84x128x3 x84x129x3 x84x145x3 
x80x55x1 x80x48x2 x80x133x2 x80x64x1 x80x209x1 x80x196x1 x80x154x1 x80x125x1 x80x60x2 x80x78x1 x80x186x2 x80x15x1 x80x128x2 x80x117x1 x80x129x2 x80x145x1 x80x7x1 x80x0x1 x80x0x2 
x2x133x3 x2x64x3 x2x209x3 x2x185x3 x2x154x3 x2x125x3 x2x60x3 x2x150x3 x2x15x3 x2x128x3 x2x129x3 x2x145x3 x2x0x3 
x55x64x1 x55x209x1 x55x196x1 x55x154x1 x55x125x1 x55x78x1 x55x15x1 x55x117x1 x55x145x1 x55x7x1 x55x0x1 
x48x133x2 x48x60x2 x48x186x2 x48x128x2 x48x129x2 x48x0x2 
x133x209x3 x133x185x3 x133x154x3 x133x125x3 x133x60x2 x133x60x3 x133x150x3 x133x186x2 x133x15x3 x133x128x2 x133x128x3 x133x129x2 x133x129x3 x133x145x3 x133x0x2 x133x0x3 
x64x209x1 x64x209x3 x64x196x1 x64x185x3 x64x154x1 x64x154x3 x64x125x1 x64x125x3 x64x60x3 x64x78x1 x64x150x3 x64x15x1 x64x15x3 x64x128x3 x64x117x1 x64x129x3 x64x145x1 x64x145x3 x64x7x1 x64x0x1 x64x0x3 
x23x20x3 x23x77x1 x23x77x3 x23x185x3 x23x150x3 x23x15x1 x23x15x3 x23x128x3 x23x117x1 x23x129x3 x23x145x1 x23x145x3 x23x7x1 x23x0x1 x23x0x3 
x20x77x3 x20x185x3 x20x150x3 x20x186x2 x20x15x3 x20x128x2 x20x128x3 x20x129x2 x20x129x3 x20x145x3 x20x0x2 x20x0x3 
x77x15x1 x77x15x3 x77x128x3 x77x129x3 x77x145x1 x77x145x3 x77x7x1 x77x0x1 x77x0x3 
x209x196x1 x209x154x1 x209x154x3 x209x125x1 x209x125x3 x209x60x3 x209x78x1 x209x117x1 x209x7x1 x209x0x1 x209x0x3 
x196x154x1 x196x125x1 x196x78x1 x196x117x1 x196x0x1 
x185x15x3 x185x128x3 x185x129x3 x185x145x3 x185x0x3 
x154x60x3 x154x78x1 x154x117x1 x154x0x1 x154x0x3 
x125x117x1 x125x0x1 x125x0x3 
x60x0x2 x60x0x3 
x78x117x1 x78x0x1 
x150x15x3 x150x0x3 
x186x128x2 x186x129x2 x186x0x2 
x15x7x1 x15x0x1 x15x0x3 
x128x129x2 x128x129x3 x128x145x3 x128x0x2 x128x0x3 
x117x0x1 
x129x145x3 x129x0x2 x129x0x3 
x145x0x1 x145x0x3 
x7x0x1 

Binaries
y80 y2 y55 y48 y133 y64 y23 y20 y77 y209 y196 y185 y154 y125 y60 y78 y150 y186 y15 y128 y117 y129 y145 y7 
z58z80z2 z58z48z2 z58z133z2 z58z20z2 z58z60z2 z58z186z2 z58z128z2 z58z129z2 
z88z80z1 z88z80z2 z88z55z1 z88z48z2 z88z133z2 z88z64z1 z88z23z1 z88z20z2 z88z77z1 z88z209z1 z88z196z1 z88z154z1 z88z125z1 z88z60z2 z88z78z1 z88z186z2 z88z15z1 z88z128z2 z88z117z1 z88z129z2 z88z145z1 z88z7z1 
z97z80z2 z97z2z3 z97z48z2 z97z133z2 z97z133z3 z97z64z3 z97z23z3 z97z20z2 z97z20z3 z97z77z3 z97z209z3 z97z185z3 z97z154z3 z97z125z3 z97z60z2 z97z60z3 z97z150z3 z97z186z2 z97z15z3 z97z128z2 z97z128z3 z97z129z2 z97z129z3 z97z145z3 
z187z80z2 z187z48z2 z187z133z2 z187z20z2 z187z60z2 z187z186z2 z187z128z2 z187z129z2 
z149z209z1 z149z196z1 z149z154z1 z149z125z1 z149z78z1 z149z15z1 z149z117z1 z149z145z1 z149z7z1 
z205z117z1 
z73z23z1 z73z23z3 z73z20z3 z73z77z1 z73z77z3 z73z196z1 z73z185z3 z73z154z1 z73z154z3 z73z125z1 z73z125z3 z73z60z3 z73z78z1 z73z150z3 z73z15z1 z73z15z3 z73z128z3 z73z117z1 z73z129z3 z73z145z1 z73z145z3 z73z7z1 
z181z23z1 z181z23z3 z181z20z3 z181z77z1 z181z77z3 z181z185z3 z181z154z1 z181z154z3 z181z125z1 z181z125z3 z181z60z3 z181z78z1 z181z150z3 z181z15z1 z181z15z3 z181z128z3 z181z117z1 z181z129z3 z181z145z1 z181z145z3 z181z7z1 
z30z60z2 z30z186z2 z30z128z2 z30z129z2 
z84z2z3 z84z133z3 z84z64z3 z84z23z3 z84z20z3 z84z77z3 z84z209z3 z84z185z3 z84z154z3 z84z125z3 z84z60z3 z84z150z3 z84z15z3 z84z128z3 z84z129z3 z84z145z3 
z80z55z1 z80z48z2 z80z133z2 z80z64z1 z80z209z1 z80z196z1 z80z154z1 z80z125z1 z80z60z2 z80z78z1 z80z186z2 z80z15z1 z80z128z2 z80z117z1 z80z129z2 z80z145z1 z80z7z1 
z2z133z3 z2z64z3 z2z209z3 z2z185z3 z2z154z3 z2z125z3 z2z60z3 z2z150z3 z2z15z3 z2z128z3 z2z129z3 z2z145z3 
z55z64z1 z55z209z1 z55z196z1 z55z154z1 z55z125z1 z55z78z1 z55z15z1 z55z117z1 z55z145z1 z55z7z1 
z48z133z2 z48z60z2 z48z186z2 z48z128z2 z48z129z2 
z133z209z3 z133z185z3 z133z154z3 z133z125z3 z133z60z2 z133z60z3 z133z150z3 z133z186z2 z133z15z3 z133z128z2 z133z128z3 z133z129z2 z133z129z3 z133z145z3 
z64z209z1 z64z209z3 z64z196z1 z64z185z3 z64z154z1 z64z154z3 z64z125z1 z64z125z3 z64z60z3 z64z78z1 z64z150z3 z64z15z1 z64z15z3 z64z128z3 z64z117z1 z64z129z3 z64z145z1 z64z145z3 z64z7z1 
z23z20z3 z23z77z1 z23z77z3 z23z185z3 z23z150z3 z23z15z1 z23z15z3 z23z128z3 z23z117z1 z23z129z3 z23z145z1 z23z145z3 z23z7z1 
z20z77z3 z20z185z3 z20z150z3 z20z186z2 z20z15z3 z20z128z2 z20z128z3 z20z129z2 z20z129z3 z20z145z3 
z77z15z1 z77z15z3 z77z128z3 z77z129z3 z77z145z1 z77z145z3 z77z7z1 
z209z196z1 z209z154z1 z209z154z3 z209z125z1 z209z125z3 z209z60z3 z209z78z1 z209z117z1 z209z7z1 
z196z154z1 z196z125z1 z196z78z1 z196z117z1 
z185z15z3 z185z128z3 z185z129z3 z185z145z3 
z154z60z3 z154z78z1 z154z117z1 
z125z117z1 

z78z117z1 
z150z15z3 
z186z128z2 z186z129z2 
z15z7z1 
z128z129z2 z128z129z3 z128z145z3 

z129z145z3 



End